4 
5  42 
6  02 20 35 48 
7  03 18 33 48 
8  03 18 33 48 
9  03 18 34 48 
10  03 18 33 48 
11  02 17 32 47 
12  02 17 32 47 
13  02 18 33 48 
14  03 18 33 48 
15  03 18 33 48 
16  03 18 33 48 
17  03 18 33 48 
18  03 18 33 48 
19  04 18 33 48 
20  03 18 33 48 
21  03 18 36 51 
22  03 18 33 48 
23  06 19 34 
0 
